db/inputs/1222722582262631995314418195542553115401.smt2
(set-logic QF_FP)
(declare-const x0 (_ FloatingPoint 8 24))
(declare-const x1 (_ FloatingPoint 8 24))
(declare-const x2 (_ FloatingPoint 8 24))
(declare-const x3 (_ FloatingPoint 8 24))
(declare-const x4 (_ FloatingPoint 8 24))
(declare-const x5 (_ FloatingPoint 8 24))
(declare-const x6 (_ FloatingPoint 8 24))
(declare-const x7 (_ FloatingPoint 8 24))
(declare-const x8 (_ FloatingPoint 8 24))
(declare-const x9 (_ FloatingPoint 8 24))
(assert (fp.leq (fp.add RNE (fp.neg x9) (fp.sub RNE x0 x4)) (fp.neg (fp.neg x1))))
(assert (fp.lt (fp.mul RNE (fp.add RNE x5 x4) (fp.mul RNE x5 x4)) (fp.mul RNE (fp.div RNE x6 x4) (fp.add RNE x8 x4))))
(check-sat)
