db/data/1222722582262631995314418195542553115401.z3.out
sat
-------------------
.645011306
